(declare-const X String)
; ^\+[0-9]{1,3}\([0-9]{3}\)[0-9]{7}$
(assert (str.in_re X (re.++ (str.to_re "+") ((_ re.loop 1 3) (re.range "0" "9")) (str.to_re "(") ((_ re.loop 3 3) (re.range "0" "9")) (str.to_re ")") ((_ re.loop 7 7) (re.range "0" "9")) (str.to_re "\u{a}"))))
; IPAnaloffers\u{2E}bullseye-network\u{2E}com
(assert (not (str.in_re X (str.to_re "IPAnaloffers.bullseye-network.com\u{a}"))))
; /([^\u{0}-\u{FF}]\s*)/u
(assert (not (str.in_re X (re.++ (str.to_re "//u\u{a}") (re.range "\u{0}" "\u{ff}") (re.* (re.union (str.to_re " ") (str.to_re "\u{9}") (str.to_re "\u{a}") (str.to_re "\u{c}") (str.to_re "\u{d}")))))))
(check-sat)
